71 53
58 29
30 78
1 76
82 71
4 41
87 79
37 97
88 5
95 36
53 77
5 59
47 30
62 65
26 28
83 83
59 99
92 22
70 98
24 53
10 100
68 1
58 10
10 80
28 4
29 38
30 95
98 40
28 16
16 65
41 41
71 32
63 20
18 58
8 46
91 26
79 38
29 92
63 63
43 9
56 70
92 84
2 54
92 43
68 50
51 46
35 40
27 5
24 98
6 39
36 49
71 53
